c WARNING: for repeatability, setting FPU to use double precision
d VARIABLES            226848       
d CONSTRAINTS          839608       
c ============================[ Problem Statistics ]=============================
c |                                                                             |
c |  Number of variables:        226848                                         |
c |  Number of clauses:          839608                                         |
c |  Parse time:                   0.15 s                                       |
c |                                                                             |
c ============================[ Search Statistics ]==============================
c | Conflicts |          ORIGINAL         |          LEARNT          | Progress |
c |           |    Vars  Clauses Literals |    Limit  Clauses Lit/Cl |          |
c ===============================================================================
c |       100 |  186587   735186  1843877 |   269568      100      4 | 17.748 % |
c |       250 |  186587   735186  1843877 |   296525      250     42 | 17.748 % |
c |       475 |  186587   735186  1843877 |   326177      475     27 | 17.748 % |
c |       812 |  186587   735186  1843877 |   358795      812     22 | 17.748 % |
c |      1318 |  186587   735186  1843877 |   394674     1318     23 | 17.748 % |
c |      2077 |  186587   735186  1843877 |   434142     2077     17 | 17.748 % |
c |      3216 |  186587   735186  1843877 |   477556     3216     42 | 17.748 % |
c |      4924 |  186587   735186  1843877 |   525312     4924     46 | 17.748 % |
c |      7486 |  186587   735186  1843877 |   577843     7486     87 | 17.748 % |
c |     11330 |  186587   735186  1843877 |   635627    11330     92 | 17.748 % |
c |     17096 |  186587   735186  1843877 |   699190    17096    107 | 17.748 % |
c |     25745 |  186587   735186  1843877 |   769109    25745    130 | 17.748 % |
c |     38719 |  186587   735186  1843877 |   846020    38719    129 | 17.748 % |
c |     58180 |  186587   735186  1843877 |   930622    58180    123 | 17.748 % |
c |     87372 |  186587   735186  1843877 |  1023684    87372    130 | 17.748 % |
c |    131161 |  186587   735186  1843877 |  1126053   131161    138 | 17.748 % |
c |    196845 |  186587   735186  1843877 |  1238658   196845    146 | 17.748 % |
c |    295371 |  186587   735186  1843877 |  1362524   295371    146 | 17.748 % |
c |    443160 |  186587   735186  1843877 |  1498776   443160    149 | 17.748 % |
c |    664843 |  186587   735186  1843877 |  1648654   664843    155 | 17.748 % |
c |    997368 |  186587   735186  1843877 |  1813520   997368    153 | 17.748 % |
c |   1496156 |  186587   735186  1843877 |  1994872  1496156    155 | 17.748 % |
c |   2244338 |  186587   735186  1843877 |  2194359   246839    139 | 17.748 % |
c ===============================================================================
c restarts              : 4348
c conflicts             : 2542951        (1419 /sec)
c decisions             : 6224126        (0.00 % random) (3472 /sec)
c propagations          : 3213972770     (1792819 /sec)
c conflict literals     : 392302695      (41.88 % deleted)
d RESTARTS             4348
d FAILURES             2542951      
d NODES                6224126      
d BACKTRACKS           6224126      
d PROPAGATIONS         3213972770   
d NOGOODSIZE           154.27 
d MEMORY               1666.00 
d TIME                 1792.69 

s UNKNOWN
